100
32
31
28
11
2
11
31
7
4
15
17
8
2
21
8
3
20
5
1
17
1
17
1
2
2
9
20
1
8
3
2
21
2
3
5
18
2
17
31
11
8
3
3
2
3
18
26
11
3
31
17
3
5
2
5
19
6
5
3
29
3
3
18
2
11
3
1
2
17
18
4
1
4
16
1
15
4
2
3
4
3
17
1
18
1
1
28
25
6
7
2
24
2
6
3
5
18
8
1
1
1